Route #1: 30 32 56 45 51 27 29 50 58 31 19 18 15 22 40 41 37 8
Route #2: 7 54 34 14 20 21 63 33 57 52 60 6 24 5 62 25 10 43 38 59
Route #3: 53 9 55 3 48 17 64 47 61
Route #4: 1
Route #5: 23
Route #6: 49 4 2 28 44 13 36 39 26 16 12 46
Route #7: 35 42 11
Route #8: 
Route #9: 
cost 1987.9661098353467
